\ Model vert
\ LP format - for model browsing. Use MPS format to capture full model detail.
Minimize
<<<<<<< Updated upstream
  60394.15895008597 S_coef + 3537.618457422204 Constant + [ 515524 S_coef ^2
=======
  6976.427934354323 S_coef + 69.67247964137661 Constant + [ 349281 S_coef ^2
>>>>>>> Stashed changes
   ] / 2 
Subject To
Bounds
 -1000 <= S_coef <= 0
 Constant = 1
End
